nApps = 240
nRes = 9
nActs = 460
nNetworks = 6

assignmentToResources = [1,3,1,1,2,3,1,3,2,3,2,1,2,3,2,3,3,3,2,2,3,2,2,3,2,2,3,3,3,2,2,3,2,3,2,1,3,3,1,1,2,3,3,1,1,3,1,2,3,2,2,1,1,1,1,1,2,2,2,2,1,2,3,2,1,2,1,2,3,3,3,1,3,2,1,3,2,3,3,2,3,2,2,2,3,3,2,2,3,2,2,2,2,3,2,2,1,1,2,3,4,4,6,6,4,4,4,4,4,4,5,6,4,4,6,6,6,6,6,6,5,5,5,6,6,6,5,5,5,5,4,4,4,5,5,5,6,6,6,6,6,6,6,6,6,6,6,5,5,5,5,5,5,5,5,5,6,6,6,5,5,5,5,5,6,6,5,5,5,5,5,5,6,6,5,6,6,6,6,6,5,5,5,5,5,6,6,4,4,5,5,6,6,4,4,4,4,4,4,6,6,4,5,5,5,6,5,5,5,4,4,4,4,4,4,4,4,4,5,5,5,5,5,5,5,5,4,4,6,6,6,5,5,6,5,5,5,6,6,6,6,6,5,6,6,6,5,5,5,5,6,5,5,5,5,5,5,5,5,4,4,4,5,6,5,7,6,8,4,8,5,9,6,7,4,9,4,9,6,8,5,7,5,9,4,8,6,8,4,8,6,7,6,7,4,8,8,9,7,7,9,8,8,8,9,8,9,8,8,9,8,8,8,8,8,8,7,9,9,7,8,7,7,9,7,9,8,9,9,9,9,9,8,8,8,8,8,7,7,7,8,8,8,9,7,7,9,7,7,7,7,7,8,8,7,9,9,7,7,7,7,8,7,9,9,9,9,9,8,8,7,7,7,7,8,7,9,9,9,9,9,7,8,8,8,7,7,7,8,8,8,8,8,9,9,8,7,8,9,9,9,7,9,9,9,9,8,8,8,8,9,9,8,9,9,9,7,7,9,9,7,9,8,8,8,8,7,9,9,7,9,7,9,7,7,8,7,8,7,8,8,8,9,7,7,9,8,7,9,9,7,9,9,9,7,8,9,9,7,8];

processingTimes = [48,136,104,152,136,64,112,120,128,152,152,128,120,144,88,112,136,104,120,136,136,64,56,112,104,136,120,80,112,136,56,160,96,120,96,120,168,56,128,112,168,96,128,80,72,104,112,96,144,104,144,120,104,120,40,96,136,128,112,72,120,64,120,136,168,64,104,144,120,152,120,72,144,144,128,136,88,152,112,48,112,136,128,160,104,64,120,128,112,120,64,88,144,136,136,88,112,168,120,128,3,3,4,3,3,4,4,3,3,5,3,1000,3,1000,3,1000,3,4,4,4,5,4,4,4,4,3,2500,5,2500,1000,8,4,4,3,3,1000,1000,5,23,4,1000,1000,4,4,1000,5,8,4,4,8,1000,2500,3,3,2500,4,8,8,4,5,1000,3,3,3,2500,3,4,1000,1000,4,4,3,5,4,3,4,3,3,1000,3,4,4,1000,4,4,3,4,1000,5,5,5,8,23,4,5,1000,4,3,3,4,4,1000,4,4,4,4,4,4,4,3,3,8,1000,4,3,4,4,4,3,1000,4,4,4,4,2000,7,3,5,8,3,1000,1000,3,8,3,4,4,2000,3,3,3,4,3,8,8,4,4,3,8,1000,3,5,23,3,3,4,4,4,4,4,4,500,1000,4,4,4,8,8,3,3,3,3,3,3,4,4,8,8,8,8,4,4,1000,1000,1000,1000,1000,1000,8,8,8,8,4,4,3,3,3,3,4,3,3,4,4,3,3,5,3,1000,3,1000,3,1000,3,4,4,4,5,4,4,4,4,3,2500,5,2500,1000,8,4,4,3,3,1000,1000,5,23,4,1000,1000,4,4,1000,5,8,4,4,8,1000,2500,3,3,2500,4,8,8,4,5,1000,3,3,3,2500,3,4,1000,1000,4,4,3,5,4,3,4,3,3,1000,3,4,4,1000,4,4,3,4,1000,5,5,5,8,23,4,5,1000,4,3,3,4,4,1000,4,4,4,4,4,4,4,3,3,8,1000,4,3,4,4,4,3,1000,4,4,4,4,2000,7,3,5,8,3,1000,1000,3,8,3,4,4,2000,3,3,3,4,3,8,8,4,4,3,8,1000,3,5,23,3,3,4,4,4,4,4,4,500,1000,4];

periods = [20000,20000,2000,100000,100000,100000,10000,20000,20000,50000,100000,10000,50000,100000,20000,100000,10000,100000,20000,100000,100000,100000,100000,20000,20000,20000,50000,100000,10000,20000,20000,10000,20000,20000,10000,100000,20000,100000,10000,10000,20000,50000,20000,20000,10000,10000,10000,50000,5000,10000,10000,20000,50000,10000,20000,5000,20000,50000,10000,20000,20000,20000,10000,50000,20000,5000,2000,10000,100000,100000,100000,100000,10000,20000,20000,10000,20000,10000,20000,50000,20000,100000,20000,10000,10000,10000,10000,20000,5000,20000,20000,10000,20000,100000,20000,20000,100000,5000,10000,100000,20000,20000,20000,20000,2000,2000,2000,100000,100000,100000,100000,100000,10000,10000,20000,20000,20000,20000,20000,20000,20000,20000,20000,50000,50000,50000,100000,100000,100000,100000,10000,10000,10000,50000,50000,50000,100000,100000,100000,100000,10000,10000,10000,100000,100000,100000,100000,20000,20000,20000,100000,100000,100000,100000,100000,100000,20000,20000,20000,20000,20000,20000,20000,20000,50000,10000,20000,20000,20000,20000,20000,20000,10000,10000,20000,20000,20000,20000,20000,20000,10000,10000,10000,10000,10000,20000,20000,10000,10000,20000,20000,50000,20000,20000,20000,20000,20000,10000,10000,10000,10000,10000,50000,50000,50000,5000,10000,10000,10000,20000,50000,50000,50000,5000,5000,5000,5000,5000,50000,50000,50000,20000,20000,20000,20000,5000,2000,2000,100000,10000,10000,20000,20000,10000,20000,20000,20000,20000,20000,20000,20000,20000,50000,20000,20000,20000,100000,100000,20000,10000,10000,10000,20000,10000,10000,20000,20000,20000,20000,100000,100000,5000,10000,100000,100000,100000,10000,10000,10000,10000,10000,10000,10000,10000,10000,10000,10000,10000,10000,10000,10000,10000,20000,20000,20000,20000,10000,10000,10000,10000,10000,10000,20000,20000,20000,20000,20000,20000,20000,20000,2000,2000,2000,100000,100000,100000,100000,100000,10000,10000,20000,20000,20000,20000,20000,20000,20000,20000,20000,50000,50000,50000,100000,100000,100000,100000,10000,10000,10000,50000,50000,50000,100000,100000,100000,100000,10000,10000,10000,100000,100000,100000,100000,20000,20000,20000,100000,100000,100000,100000,100000,100000,20000,20000,20000,20000,20000,20000,20000,20000,50000,10000,20000,20000,20000,20000,20000,20000,10000,10000,20000,20000,20000,20000,20000,20000,10000,10000,10000,10000,10000,20000,20000,10000,10000,20000,20000,50000,20000,20000,20000,20000,20000,10000,10000,10000,10000,10000,50000,50000,50000,5000,10000,10000,10000,20000,50000,50000,50000,5000,5000,5000,5000,5000,50000,50000,50000,20000,20000,20000,20000,5000,2000,2000,100000,10000,10000,20000,20000,10000,20000,20000,20000,20000,20000,20000,20000,20000,50000,20000,20000,20000,100000,100000,20000,10000,10000,10000,20000,10000,10000,20000,20000,20000,20000,100000,100000,5000,10000,100000];

assignmentToClusters = [1,2,3,4,5,6,7,8,9,10,4,11,12,13,14,15,16,17,18,19,17,20,21,22,23,22,24,25,26,27,28,29,30,31,32,33,34,25,35,36,37,38,39,40,41,7,11,42,43,7,44,45,46,7,47,48,49,50,11,51,52,53,54,55,56,57,58,36,6,59,17,33,60,61,22,7,62,11,63,64,45,65,66,7,67,41,29,68,69,70,71,7,45,17,72,73,74,75,76,25,77,78,79,80,81,82,83,84,85,86,87,88,89,90,91,92,93,94,95,96,97,98,99,100,101,102,103,104,105,106,107,108,109,110,111,112,113,114,115,116,117,118,119,120,121,122,123,124,125,126,127,128,129,130,131,132,133,134,135,136,137,138,139,140,141,142,143,144,145,146,147,148,149,150,151,152,153,154,155,156,157,158,159,160,161,162,163,164,165,166,167,168,169,170,171,172,173,174,175,176,177,178,179,180,181,182,183,184,185,186,187,188,189,190,191,192,193,194,195,196,197,198,199,200,201,202,203,204,205,206,207,208,209,210,211,212,213,214,215,216,217,218,219,220,221,222,223,224,225,226,227,228,229,230,231,232,233,234,235,236,237,238,239,240,4,4,7,7,7,7,7,7,7,7,7,7,11,11,11,11,11,11,22,22,22,22,29,29,36,36,41,41,45,45,45,45,77,78,79,80,81,82,83,84,85,86,87,88,89,90,91,92,93,94,95,96,97,98,99,100,101,102,103,104,105,106,107,108,109,110,111,112,113,114,115,116,117,118,119,120,121,122,123,124,125,126,127,128,129,130,131,132,133,134,135,136,137,138,139,140,141,142,143,144,145,146,147,148,149,150,151,152,153,154,155,156,157,158,159,160,161,162,163,164,165,166,167,168,169,170,171,172,173,174,175,176,177,178,179,180,181,182,183,184,185,186,187,188,189,190,191,192,193,194,195,196,197,198,199,200,201,202,203,204,205,206,207,208,209,210,211,212,213,214,215,216,217,218,219,220,221,222,223,224,225,226,227,228,229,230,231,232,233,234,235,236,237,238,239,240];

precedenceAdjList = [[],[],[],[265],[],[],[],[],[],[],[],[],[],[],[],[],[],[],[],[],[70],[],[],[283],[],[285],[],[],[],[],[],[],[],[],[],[],[],[99],[],[],[],[],[],[],[291],[275],[281],[],[],[267,269],[],[293],[],[273],[],[],[],[],[279],[],[],[],[],[],[],[],[],[289],[5],[],[17],[35],[],[],[],[271],[],[277],[],[],[],[],[],[49],[],[],[287],[],[],[],[],[],[295],[70],[],[],[],[],[],[27],[],[],[],[],[],[],[],[],[],[],[],[],[],[],[],[],[],[],[],[],[],[],[],[],[],[],[],[],[],[],[],[],[],[],[],[],[],[],[],[],[],[],[],[],[],[],[],[],[],[],[],[],[],[],[],[],[],[],[],[],[],[],[],[],[],[],[],[],[],[],[],[],[],[],[],[],[],[],[],[],[],[],[],[],[],[],[],[],[],[],[],[],[],[],[],[],[],[],[],[],[],[],[],[],[],[],[],[],[],[],[],[],[],[],[],[],[],[],[],[],[],[],[],[],[],[],[],[],[],[],[],[],[],[],[],[],[],[],[],[],[],[],[],[],[],[],[],[],[],[],[],[],[],[],[],[],[],[],[],[],[],[],[],[],[10],[264],[75],[266],[6],[268],[91],[270],[75],[272],[53],[274],[11],[276],[77],[278],[58],[280],[25],[282],[74],[284],[31],[286],[39],[288],[85],[290],[80],[292],[51],[294],[100],[101],[102],[103],[104],[105],[106],[107],[108],[109],[110],[111],[112],[113],[114],[115],[116],[117],[118],[119],[120],[121],[122],[123],[124],[125],[126],[127],[128],[129],[130],[131],[132],[133],[134],[135],[136],[137],[138],[139],[140],[141],[142],[143],[144],[145],[146],[147],[148],[149],[150],[151],[152],[153],[154],[155],[156],[157],[158],[159],[160],[161],[162],[163],[164],[165],[166],[167],[168],[169],[170],[171],[172],[173],[174],[175],[176],[177],[178],[179],[180],[181],[182],[183],[184],[185],[186],[187],[188],[189],[190],[191],[192],[193],[194],[195],[196],[197],[198],[199],[200],[201],[202],[203],[204],[205],[206],[207],[208],[209],[210],[211],[212],[213],[214],[215],[216],[217],[218],[219],[220],[221],[222],[223],[224],[225],[226],[227],[228],[229],[230],[231],[232],[233],[234],[235],[236],[237],[238],[239],[240],[241],[242],[243],[244],[245],[246],[247],[248],[249],[250],[251],[252],[253],[254],[255],[256],[257],[258],[259],[260],[261],[262],[263]];